5 
300 
10.5 14.4 0 0
11.2 14.1 0 -21
18 15.9 -10 -99
18.3 13.3 -10 -111
16.5 9.3 -10 -136
15.4 11 10 -17
14.9 13.2 5 -17
16.3 13.3 5 -24
16.4 17.8 5 -22
15 17.9 -5 -61
16.1 19.6 10 -15
15.7 20.6 10 -25
13.2 20.1 10 -26
14.3 15.3 5 -11
14 5.1 10 -24
11.4 6.7 15 -28
8.3 5 -15 -124
7.9 9.8 10 -17
11.4 12 5 -18
11.2 17.6 5 -15
10.1 18.7 5 -24
11.7 20.3 -10 -138
10.2 22.1 -10 -138
9.7 23.8 -10 -103
10.1 26.4 15 -15
7.4 24 -15 -78
8.2 19.9 15 -12
8.7 17.7 10 -13
8.9 13.6 10 -25
5.6 11.1 -10 -76
4.9 18.9 -10 -117
7.3 18.8 10 -10
